;; translated from ./ctigar/nest-if1.c.vmt
;; original benchmark available at: https://es-static.fbk.eu/people/griggio/ic3ia/index.html
;; author: Alberto Griggio <griggio@fbk.eu>
(set-logic HORN)
(declare-fun state (Bool Bool Bool Bool Bool Int Int Int Int) Bool)
(assert (forall ((|.s.2| Bool) (|.s.0| Bool) (|.s.1| Bool) (|.s.0.next| Bool) (|.s.1.next| Bool) (|.s.2.next| Bool) (|.s.3.next| Bool) (|.s.4.next| Bool) (|main.i.next| Int) (|main.i| Int) (|main.k.next| Int) (|main.k| Int) (|main.l.next| Int) (|main.l| Int) (|main.n.next| Int) (|main.n| Int) (|.inputVar.0| Int) (|.s.4| Bool) (|.s.3| Bool)) (=> (let ((.def_20 (not .s.4)))
(let ((.def_17 (not .s.3)))
(let ((.def_14 (not .s.2)))
(let ((.def_10 (not .s.1)))
(let ((.def_12 (and .def_10 .s.0)))
(let ((.def_15 (and .def_12 .def_14)))
(let ((.def_18 (and .def_15 .def_17)))
(let ((.def_21 (and .def_18 .def_20)))
.def_21)))))))) (state |.s.1| |.s.0| |.s.2| |.s.3| |.s.4| |main.n| |main.l| |main.k| |main.i|))))
(assert (forall ((|.s.2| Bool) (|.s.0| Bool) (|.s.1| Bool) (|.s.0.next| Bool) (|.s.1.next| Bool) (|.s.2.next| Bool) (|.s.3.next| Bool) (|.s.4.next| Bool) (|main.i.next| Int) (|main.i| Int) (|main.k.next| Int) (|main.k| Int) (|main.l.next| Int) (|main.l| Int) (|main.n.next| Int) (|main.n| Int) (|.inputVar.0| Int) (|.s.4| Bool) (|.s.3| Bool)) (=> (and (state |.s.1| |.s.0| |.s.2| |.s.3| |.s.4| |main.n| |main.l| |main.k| |main.i|) (let ((.def_22 (not .s.0)))
(let ((.def_10 (not .s.1)))
(let ((.def_23 (and .def_10 .def_22)))
(let ((.def_14 (not .s.2)))
(let ((.def_102 (and .def_14 .def_23)))
(let ((.def_17 (not .s.3)))
(let ((.def_103 (and .def_17 .def_102)))
(let ((.def_20 (not .s.4)))
(let ((.def_315 (and .def_20 .def_103)))
(let ((.def_316 (not .def_315)))
(let ((.def_49 (not .s.0.next)))
(let ((.def_47 (not .s.1.next)))
(let ((.def_50 (and .def_47 .def_49)))
(let ((.def_45 (not .s.2.next)))
(let ((.def_51 (and .def_45 .def_50)))
(let ((.def_43 (not .s.3.next)))
(let ((.def_52 (and .def_43 .def_51)))
(let ((.def_41 (not .s.4.next)))
(let ((.def_53 (and .def_41 .def_52)))
(let ((.def_39 (= main.i main.i.next)))
(let ((.def_54 (and .def_39 .def_53)))
(let ((.def_36 (= main.k main.k.next)))
(let ((.def_55 (and .def_36 .def_54)))
(let ((.def_33 (= main.l main.l.next)))
(let ((.def_56 (and .def_33 .def_55)))
(let ((.def_30 (= main.n main.n.next)))
(let ((.def_57 (and .def_30 .def_56)))
(let ((.def_317 (or .def_57 .def_316)))
(let ((.def_82 (and .s.1.next .s.0.next)))
(let ((.def_83 (and .def_45 .def_82)))
(let ((.def_84 (and .def_43 .def_83)))
(let ((.def_309 (and .def_41 .def_84)))
(let ((.def_310 (and .def_39 .def_309)))
(let ((.def_311 (and .def_36 .def_310)))
(let ((.def_312 (and .def_33 .def_311)))
(let ((.def_313 (and .def_30 .def_312)))
(let ((.def_297 (<= main.l 0)))
(let ((.def_306 (not .def_297)))
(let ((.def_12 (and .def_10 .s.0)))
(let ((.def_15 (and .def_12 .def_14)))
(let ((.def_18 (and .def_15 .def_17)))
(let ((.def_21 (and .def_18 .def_20)))
(let ((.def_307 (and .def_21 .def_306)))
(let ((.def_308 (not .def_307)))
(let ((.def_314 (or .def_308 .def_313)))
(let ((.def_318 (and .def_314 .def_317)))
(let ((.def_93 (and .s.1.next .def_49)))
(let ((.def_94 (and .def_45 .def_93)))
(let ((.def_95 (and .def_43 .def_94)))
(let ((.def_300 (and .def_41 .def_95)))
(let ((.def_301 (and .def_39 .def_300)))
(let ((.def_302 (and .def_36 .def_301)))
(let ((.def_303 (and .def_33 .def_302)))
(let ((.def_304 (and .def_30 .def_303)))
(let ((.def_298 (and .def_21 .def_297)))
(let ((.def_299 (not .def_298)))
(let ((.def_305 (or .def_299 .def_304)))
(let ((.def_319 (and .def_305 .def_318)))
(let ((.def_72 (and .s.1 .def_22)))
(let ((.def_73 (and .def_14 .def_72)))
(let ((.def_74 (and .def_17 .def_73)))
(let ((.def_294 (and .def_20 .def_74)))
(let ((.def_295 (not .def_294)))
(let ((.def_296 (or .def_57 .def_295)))
(let ((.def_320 (and .def_296 .def_319)))
(let ((.def_288 (= main.k.next 1)))
(let ((.def_64 (and .s.2.next .def_50)))
(let ((.def_65 (and .def_43 .def_64)))
(let ((.def_66 (and .def_41 .def_65)))
(let ((.def_289 (and .def_66 .def_288)))
(let ((.def_290 (and .def_39 .def_289)))
(let ((.def_291 (and .def_33 .def_290)))
(let ((.def_292 (and .def_30 .def_291)))
(let ((.def_59 (and .s.1 .s.0)))
(let ((.def_60 (and .def_14 .def_59)))
(let ((.def_61 (and .def_17 .def_60)))
(let ((.def_286 (and .def_20 .def_61)))
(let ((.def_287 (not .def_286)))
(let ((.def_293 (or .def_287 .def_292)))
(let ((.def_321 (and .def_293 .def_320)))
(let ((.def_280 (and .s.4.next .def_65)))
(let ((.def_281 (and .def_39 .def_280)))
(let ((.def_282 (and .def_36 .def_281)))
(let ((.def_283 (and .def_33 .def_282)))
(let ((.def_284 (and .def_30 .def_283)))
(let ((.def_267 (<= main.n main.k)))
(let ((.def_24 (and .s.2 .def_23)))
(let ((.def_25 (and .def_17 .def_24)))
(let ((.def_266 (and .def_20 .def_25)))
(let ((.def_278 (and .def_266 .def_267)))
(let ((.def_279 (not .def_278)))
(let ((.def_285 (or .def_279 .def_284)))
(let ((.def_322 (and .def_285 .def_321)))
(let ((.def_144 (and .def_47 .s.0.next)))
(let ((.def_174 (and .s.2.next .def_144)))
(let ((.def_271 (and .def_43 .def_174)))
(let ((.def_272 (and .def_41 .def_271)))
(let ((.def_273 (and .def_39 .def_272)))
(let ((.def_274 (and .def_36 .def_273)))
(let ((.def_275 (and .def_33 .def_274)))
(let ((.def_276 (and .def_30 .def_275)))
(let ((.def_268 (not .def_267)))
(let ((.def_269 (and .def_266 .def_268)))
(let ((.def_270 (not .def_269)))
(let ((.def_277 (or .def_270 .def_276)))
(let ((.def_323 (and .def_277 .def_322)))
(let ((.def_106 (and .s.2.next .def_93)))
(let ((.def_195 (and .def_43 .def_106)))
(let ((.def_196 (and .def_41 .def_195)))
(let ((.def_157 (= main.l main.i.next)))
(let ((.def_261 (and .def_157 .def_196)))
(let ((.def_262 (and .def_36 .def_261)))
(let ((.def_263 (and .def_33 .def_262)))
(let ((.def_264 (and .def_30 .def_263)))
(let ((.def_153 (and .def_12 .s.2)))
(let ((.def_258 (and .def_17 .def_153)))
(let ((.def_259 (and .def_20 .def_258)))
(let ((.def_260 (not .def_259)))
(let ((.def_265 (or .def_260 .def_264)))
(let ((.def_324 (and .def_265 .def_323)))
(let ((.def_251 (and .s.3.next .def_64)))
(let ((.def_252 (and .def_41 .def_251)))
(let ((.def_253 (and .def_39 .def_252)))
(let ((.def_254 (and .def_36 .def_253)))
(let ((.def_255 (and .def_33 .def_254)))
(let ((.def_256 (and .def_30 .def_255)))
(let ((.def_127 (and .s.2 .def_72)))
(let ((.def_238 (and .def_17 .def_127)))
(let ((.def_239 (and .def_20 .def_238)))
(let ((.def_130 (<= main.n main.i)))
(let ((.def_249 (and .def_130 .def_239)))
(let ((.def_250 (not .def_249)))
(let ((.def_257 (or .def_250 .def_256)))
(let ((.def_325 (and .def_257 .def_324)))
(let ((.def_134 (and .s.2.next .def_82)))
(let ((.def_242 (and .def_43 .def_134)))
(let ((.def_243 (and .def_41 .def_242)))
(let ((.def_244 (and .def_39 .def_243)))
(let ((.def_245 (and .def_36 .def_244)))
(let ((.def_246 (and .def_33 .def_245)))
(let ((.def_247 (and .def_30 .def_246)))
(let ((.def_131 (not .def_130)))
(let ((.def_240 (and .def_131 .def_239)))
(let ((.def_241 (not .def_240)))
(let ((.def_248 (or .def_241 .def_247)))
(let ((.def_326 (and .def_248 .def_325)))
(let ((.def_224 (<= 1 main.i)))
(let ((.def_234 (not .def_224)))
(let ((.def_114 (and .s.2 .def_59)))
(let ((.def_222 (and .def_17 .def_114)))
(let ((.def_223 (and .def_20 .def_222)))
(let ((.def_235 (and .def_223 .def_234)))
(let ((.def_236 (not .def_235)))
(let ((.def_185 (and .s.3.next .def_83)))
(let ((.def_186 (and .def_41 .def_185)))
(let ((.def_187 (and .def_39 .def_186)))
(let ((.def_188 (and .def_36 .def_187)))
(let ((.def_189 (and .def_33 .def_188)))
(let ((.def_190 (and .def_30 .def_189)))
(let ((.def_237 (or .def_190 .def_236)))
(let ((.def_327 (and .def_237 .def_326)))
(let ((.def_227 (and .s.3.next .def_51)))
(let ((.def_228 (and .def_41 .def_227)))
(let ((.def_229 (and .def_39 .def_228)))
(let ((.def_230 (and .def_36 .def_229)))
(let ((.def_231 (and .def_33 .def_230)))
(let ((.def_232 (and .def_30 .def_231)))
(let ((.def_225 (and .def_223 .def_224)))
(let ((.def_226 (not .def_225)))
(let ((.def_233 (or .def_226 .def_232)))
(let ((.def_328 (and .def_233 .def_327)))
(let ((.def_145 (and .def_45 .def_144)))
(let ((.def_215 (and .s.3.next .def_145)))
(let ((.def_216 (and .def_41 .def_215)))
(let ((.def_217 (and .def_39 .def_216)))
(let ((.def_218 (and .def_36 .def_217)))
(let ((.def_219 (and .def_33 .def_218)))
(let ((.def_220 (and .def_30 .def_219)))
(let ((.def_212 (and .s.3 .def_102)))
(let ((.def_213 (and .def_20 .def_212)))
(let ((.def_214 (not .def_213)))
(let ((.def_221 (or .def_214 .def_220)))
(let ((.def_329 (and .def_221 .def_328)))
(let ((.def_205 (and .s.3.next .def_94)))
(let ((.def_206 (and .def_41 .def_205)))
(let ((.def_119 (* (- 1) main.i.next)))
(let ((.def_120 (+ main.i .def_119)))
(let ((.def_121 (= .def_120 (- 1))))
(let ((.def_207 (and .def_121 .def_206)))
(let ((.def_208 (and .def_36 .def_207)))
(let ((.def_209 (and .def_33 .def_208)))
(let ((.def_210 (and .def_30 .def_209)))
(let ((.def_202 (and .def_15 .s.3)))
(let ((.def_203 (and .def_20 .def_202)))
(let ((.def_204 (not .def_203)))
(let ((.def_211 (or .def_204 .def_210)))
(let ((.def_330 (and .def_211 .def_329)))
(let ((.def_197 (and .def_39 .def_196)))
(let ((.def_198 (and .def_36 .def_197)))
(let ((.def_199 (and .def_33 .def_198)))
(let ((.def_200 (and .def_30 .def_199)))
(let ((.def_192 (and .s.3 .def_73)))
(let ((.def_193 (and .def_20 .def_192)))
(let ((.def_194 (not .def_193)))
(let ((.def_201 (or .def_194 .def_200)))
(let ((.def_331 (and .def_201 .def_330)))
(let ((.def_182 (and .s.3 .def_60)))
(let ((.def_183 (and .def_20 .def_182)))
(let ((.def_184 (not .def_183)))
(let ((.def_191 (or .def_184 .def_190)))
(let ((.def_332 (and .def_191 .def_331)))
(let ((.def_175 (and .s.3.next .def_174)))
(let ((.def_176 (and .def_41 .def_175)))
(let ((.def_177 (and .def_39 .def_176)))
(let ((.def_178 (and .def_36 .def_177)))
(let ((.def_179 (and .def_33 .def_178)))
(let ((.def_180 (and .def_30 .def_179)))
(let ((.def_167 (= .inputVar.0 0)))
(let ((.def_163 (and .s.3 .def_24)))
(let ((.def_164 (and .def_20 .def_163)))
(let ((.def_172 (and .def_164 .def_167)))
(let ((.def_173 (not .def_172)))
(let ((.def_181 (or .def_173 .def_180)))
(let ((.def_333 (and .def_181 .def_332)))
(let ((.def_168 (not .def_167)))
(let ((.def_169 (and .def_164 .def_168)))
(let ((.def_170 (not .def_169)))
(let ((.def_96 (and .s.4.next .def_95)))
(let ((.def_97 (and .def_39 .def_96)))
(let ((.def_98 (and .def_36 .def_97)))
(let ((.def_99 (and .def_33 .def_98)))
(let ((.def_100 (and .def_30 .def_99)))
(let ((.def_171 (or .def_100 .def_170)))
(let ((.def_334 (and .def_171 .def_333)))
(let ((.def_107 (and .s.3.next .def_106)))
(let ((.def_108 (and .def_41 .def_107)))
(let ((.def_158 (and .def_108 .def_157)))
(let ((.def_159 (and .def_36 .def_158)))
(let ((.def_160 (and .def_33 .def_159)))
(let ((.def_161 (and .def_30 .def_160)))
(let ((.def_154 (and .s.3 .def_153)))
(let ((.def_155 (and .def_20 .def_154)))
(let ((.def_156 (not .def_155)))
(let ((.def_162 (or .def_156 .def_161)))
(let ((.def_335 (and .def_162 .def_334)))
(let ((.def_146 (and .def_43 .def_145)))
(let ((.def_147 (and .s.4.next .def_146)))
(let ((.def_148 (and .def_39 .def_147)))
(let ((.def_149 (and .def_36 .def_148)))
(let ((.def_150 (and .def_33 .def_149)))
(let ((.def_151 (and .def_30 .def_150)))
(let ((.def_128 (and .s.3 .def_127)))
(let ((.def_129 (and .def_20 .def_128)))
(let ((.def_142 (and .def_129 .def_130)))
(let ((.def_143 (not .def_142)))
(let ((.def_152 (or .def_143 .def_151)))
(let ((.def_336 (and .def_152 .def_335)))
(let ((.def_135 (and .s.3.next .def_134)))
(let ((.def_136 (and .def_41 .def_135)))
(let ((.def_137 (and .def_39 .def_136)))
(let ((.def_138 (and .def_36 .def_137)))
(let ((.def_139 (and .def_33 .def_138)))
(let ((.def_140 (and .def_30 .def_139)))
(let ((.def_132 (and .def_129 .def_131)))
(let ((.def_133 (not .def_132)))
(let ((.def_141 (or .def_133 .def_140)))
(let ((.def_337 (and .def_141 .def_336)))
(let ((.def_118 (and .s.4.next .def_52)))
(let ((.def_122 (and .def_118 .def_121)))
(let ((.def_123 (and .def_36 .def_122)))
(let ((.def_124 (and .def_33 .def_123)))
(let ((.def_125 (and .def_30 .def_124)))
(let ((.def_115 (and .s.3 .def_114)))
(let ((.def_116 (and .def_20 .def_115)))
(let ((.def_117 (not .def_116)))
(let ((.def_126 (or .def_117 .def_125)))
(let ((.def_338 (and .def_126 .def_337)))
(let ((.def_109 (and .def_39 .def_108)))
(let ((.def_110 (and .def_36 .def_109)))
(let ((.def_111 (and .def_33 .def_110)))
(let ((.def_112 (and .def_30 .def_111)))
(let ((.def_104 (and .s.4 .def_103)))
(let ((.def_105 (not .def_104)))
(let ((.def_113 (or .def_105 .def_112)))
(let ((.def_339 (and .def_113 .def_338)))
(let ((.def_91 (and .def_18 .s.4)))
(let ((.def_92 (not .def_91)))
(let ((.def_101 (or .def_92 .def_100)))
(let ((.def_340 (and .def_101 .def_339)))
(let ((.def_85 (and .s.4.next .def_84)))
(let ((.def_79 (* (- 1) main.k.next)))
(let ((.def_80 (+ main.k .def_79)))
(let ((.def_81 (= .def_80 (- 1))))
(let ((.def_86 (and .def_81 .def_85)))
(let ((.def_87 (and .def_39 .def_86)))
(let ((.def_88 (and .def_33 .def_87)))
(let ((.def_89 (and .def_30 .def_88)))
(let ((.def_75 (and .s.4 .def_74)))
(let ((.def_76 (not .def_75)))
(let ((.def_90 (or .def_76 .def_89)))
(let ((.def_341 (and .def_90 .def_340)))
(let ((.def_67 (and .def_39 .def_66)))
(let ((.def_68 (and .def_36 .def_67)))
(let ((.def_69 (and .def_33 .def_68)))
(let ((.def_70 (and .def_30 .def_69)))
(let ((.def_62 (and .s.4 .def_61)))
(let ((.def_63 (not .def_62)))
(let ((.def_71 (or .def_63 .def_70)))
(let ((.def_342 (and .def_71 .def_341)))
(let ((.def_26 (and .s.4 .def_25)))
(let ((.def_27 (not .def_26)))
(let ((.def_58 (or .def_27 .def_57)))
(let ((.def_343 (and .def_58 .def_342)))
.def_343)))))))))))))))))))))))))))))))))))))))))))))))))))))))))))))))))))))))))))))))))))))))))))))))))))))))))))))))))))))))))))))))))))))))))))))))))))))))))))))))))))))))))))))))))))))))))))))))))))))))))))))))))))))))))))))))))))))))))))))))))))))))))))))))))))))))))))))))))))))))))))))))))))))))))))))))))))))))))) (state |.s.1.next| |.s.0.next| |.s.2.next| |.s.3.next| |.s.4.next| |main.n.next| |main.l.next| |main.k.next| |main.i.next|))))
(assert (forall ((|.s.2| Bool) (|.s.0| Bool) (|.s.1| Bool) (|.s.0.next| Bool) (|.s.1.next| Bool) (|.s.2.next| Bool) (|.s.3.next| Bool) (|.s.4.next| Bool) (|main.i.next| Int) (|main.i| Int) (|main.k.next| Int) (|main.k| Int) (|main.l.next| Int) (|main.l| Int) (|main.n.next| Int) (|main.n| Int) (|.inputVar.0| Int) (|.s.4| Bool) (|.s.3| Bool)) (=> (state |.s.1| |.s.0| |.s.2| |.s.3| |.s.4| |main.n| |main.l| |main.k| |main.i|) (let ((.def_59 (and .s.1 .s.0)))
(let ((.def_14 (not .s.2)))
(let ((.def_60 (and .def_14 .def_59)))
(let ((.def_182 (and .s.3 .def_60)))
(let ((.def_20 (not .s.4)))
(let ((.def_183 (and .def_20 .def_182)))
(let ((.def_184 (not .def_183)))
.def_184))))))))))
(check-sat)
